; Main idea of this invariant proof
; If ctr are equal in both games and they use the same randomness, then both games 
;    - produce the same output
;    - abort iff the other aborts
;    - have same ctr afterwards

;;;;;;;;;;;;;;;;;;;;;;;;;;;;;;
;
; Randomness mapping
;
;;;;;;;;;;;;;;;;;;;;;;;;;;;;;;

(define-fun randomness-mapping-Sample
  ( (base-ctr-0 Int) ; This is the counter in the beginning of the oracle call on the left.
    (base-ctr-1 Int) ; This is the counter in the beginning of the oracle call on the left.
    (id-0  Int)      ; This is the sample-id, see LaTeX export for which id corresponds to which sampling.
    (id-1  Int)      ; This is the sample-id, see LaTeX export for which id corresponds to which sampling.
    (scr-0 Int)      ; This is the counter which gets incremented each time a sampling is done with the same sample id.
    (scr-1 Int))     ; This is the counter which gets incremented each time a sampling is done with the same sample id.
  Bool
  (and
    (= scr-1 base-ctr-1)
    (= scr-0 base-ctr-0)
    (= id-0      0)  ; Sampling of ni in Nonces
    (= id-1      0)  ; Sampling of ni in Nonces
    ))

;;;;;;;;;;;;;;;;;;;;;;;;;;;;;;;;;;;;;;;;;;;;;;;;;;;;;;;;;;;;;;;;;;;;;;;;;;;;;;;;;;;;;;;;;;;;;;;;;;;;;;;;
;                                                                                                      ;
; Invariant --- note that the invariant needs to be game-global and not per oracle,                    ;
;               so that induction over the oracle calls remains meaningful.                            ;
;                                                                                                      ;
;;;;;;;;;;;;;;;;;;;;;;;;;;;;;;;;;;;;;;;;;;;;;;;;;;;;;;;;;;;;;;;;;;;;;;;;;;;;;;;;;;;;;;;;;;;;;;;;;;;;;;;;

(define-fun invariant
  ( (state-comp     <GameState_Composed_<$<!n!><!false!>$>>)
    (state-simp     <GameState_Simple_<$<!n!><!false!>$>>))
  Bool
; getting package-state out of game-state and demanding equality, they should be exactly the same in this case.
true
)
